
Gurobi 12.0.1 (win64, C++) logging started Thu Apr 17 22:27:59 2025

Set parameter TokenServer to value "141.76.38.119"
Set parameter Threads to value 8
Set parameter LazyConstraints to value 1
Set parameter PreCrush to value 1
Set parameter Seed to value 0
Set parameter Cuts to value -1
Set parameter TimeLimit to value 28800
Set parameter NumericFocus to value 0
Set parameter SolutionLimit to value 10000
Gurobi Optimizer version 12.0.1 build v12.0.1rc0 (win64 - Windows Server 2022.0 (20348.2))

CPU model: AMD EPYC 7513 32-Core Processor, instruction set [SSE2|AVX|AVX2]
Thread count: 16 physical cores, 16 logical processors, using up to 8 threads

Non-default parameters:
SolutionLimit  10000
TimeLimit  28800
PreCrush  1
Threads  8
LazyConstraints  1

Optimize a model with 137 rows, 256 columns and 720 nonzeros
Model fingerprint: 0x1a2123f5
Variable types: 0 continuous, 256 integer (256 binary)
Coefficient statistics:
  Matrix range     [1e+00, 1e+00]
  Objective range  [8e+00, 6e+01]
  Bounds range     [1e+00, 1e+00]
  RHS range        [1e+00, 5e+00]

User MIP start produced solution with objective 350.582 (0.02s)
Loaded user MIP start with objective 350.582

Presolve removed 2 rows and 18 columns
Presolve time: 0.00s
Presolved: 135 rows, 238 columns, 669 nonzeros
Variable types: 0 continuous, 238 integer (238 binary)

Root relaxation: objective 2.862678e+02, 57 iterations, 0.00 seconds (0.00 work units)

    Nodes    |    Current Node    |     Objective Bounds      |     Work
 Expl Unexpl |  Obj  Depth IntInf | Incumbent    BestBd   Gap | It/Node Time

     0     0  286.26777    0    -  350.58163  286.26777  18.3%     -    0s
     0     0  294.19409    0    -  350.58163  294.19409  16.1%     -    0s
     0     0  295.17078    0   24  350.58163  295.17078  15.8%     -    0s
     0     0  298.38235    0    -  350.58163  298.38235  14.9%     -    0s
     0     0  302.74724    0    6  350.58163  302.74724  13.6%     -    0s
     0     0  307.00046    0   16  350.58163  307.00046  12.4%     -    0s
     0     0  309.89094    0   16  350.58163  309.89094  11.6%     -    0s
     0     0  314.74926    0   16  350.58163  314.74926  10.2%     -    0s
     0     0  318.88968    0    -  350.58163  318.88968  9.04%     -    0s
     0     0  320.22779    0   33  350.58163  320.22779  8.66%     -    0s
     0     0  320.81186    0   41  350.58163  320.81186  8.49%     -    0s
     0     0  322.18509    0   39  350.58163  322.18509  8.10%     -    0s
     0     0  323.37652    0   31  350.58163  323.37652  7.76%     -    0s
     0     2  323.37652    0   30  350.58163  323.37652  7.76%     -    0s
*    8     7               3     341.9984295  326.92324  4.41%  40.9    0s
*  107    37              18     334.9638862  329.80188  1.54%  25.7    2s

Cutting planes:
  MIR: 2
  Lazy constraints: 1354

Explored 163 nodes (4073 simplex iterations) in 2.84 seconds (0.29 work units)
Thread count was 8 (of 16 available processors)

Solution count 3: 334.964 341.998 350.582 

Optimal solution found (tolerance 1.00e-04)
Best objective 3.349638862376e+02, best bound 3.349638862376e+02, gap 0.0000%

User-callback calls 636, time in user-callback 2.38 sec
### START EXACT APPROACH ###
ProblemVariant: 3
### START PREPROCESSING ###
## Start infeasible path procedure ## 
Deleted arcs: 2
Infeasible tail paths: 0
Infeasible 2-node combinations: 1
## Start extended infeasible path procedure ##
Deleted arcs: 2
Infeasible tail paths: 0
Infeasible 2-node combinations: 1
## Start start solution procedure ##
Start solution with 5 Vehicles and total costs 350.582 in 0.0069881 s.
### END PREPROCESSING ###
Route 0 0-2-3-1-0 : weight util 0.963636 | volume util 0.287511 | feasible with packing heuristic | feasible with CP model
Route 1 0-4-13-14-0 : weight util 0.963636 | volume util 0.411000 | feasible with packing heuristic | feasible with CP model
Route 2 0-5-11-6-0 : weight util 1.000000 | volume util 0.366000 | feasible with packing heuristic | feasible with CP model
Route 3 0-7-8-0 : weight util 0.763636 | volume util 0.217111 | feasible with packing heuristic | feasible with CP model
Route 4 0-9-10-15-12-0 : weight util 1.000000 | volume util 0.379378 | feasible with packing heuristic | feasible with CP model
